0 4888.63
1 4888.63
2 4816.24
3 4816.24
4 4816.24
5 4806.22
6 4806.22
7 4806.22
8 4806.22
9 4795.25
10 4767.24
11 4767.24
12 4767.24
13 4767.24
14 4743.91
15 4739.42
16 4739.42
17 4739.42
18 4739.42
19 4739.42
20 4719.66
21 4694.78
22 4694.78
23 4694.78
24 4694.78
25 4694.78
26 4694.78
27 4694.78
28 4694.78
29 4694.78
30 4694.78
31 4694.78
32 4694.78
33 4672.76
34 4672.76
35 4648.08
36 4648.08
37 4597.90
38 4597.90
39 4597.90
40 4597.90
41 4597.90
42 4597.90
43 4597.90
44 4597.90
45 4597.90
46 4597.90
47 4597.90
48 4597.90
49 4597.90
50 4597.90
51 4597.42
52 4597.42
53 4597.42
54 4597.42
55 4597.42
56 4597.42
57 4597.42
58 4597.42
59 4597.42
60 4597.42
61 4593.72
62 4593.72
63 4593.72
64 4593.72
65 4593.72
66 4593.72
67 4593.72
68 4593.72
69 4593.72
70 4593.72
71 4593.72
72 4593.72
73 4593.72
74 4593.72
75 4593.72
76 4593.72
77 4593.72
78 4593.72
79 4593.72
80 4593.72
81 4593.72
82 4593.72
83 4588.89
84 4588.89
85 4588.89
86 4588.89
87 4588.89
88 4588.89
89 4588.89
90 4588.89
91 4588.89
92 4588.89
93 4588.54
94 4588.54
95 4588.54
96 4588.54
97 4588.54
98 4588.54
99 4588.54
100 4588.54
101 4588.54
102 4588.54
103 4587.88
104 4587.88
105 4587.88
106 4587.88
107 4587.71
108 4587.71
109 4587.71
110 4587.71
111 4587.71
112 4587.71
113 4587.71
114 4587.71
115 4587.71
116 4587.71
117 4587.71
118 4587.71
119 4587.71
120 4587.71
121 4587.71
122 4587.71
123 4587.71
124 4587.71
125 4587.71
126 4587.71
127 4587.71
128 4587.71
129 4587.71
130 4587.71
131 4587.71
132 4587.71
133 4587.71
134 4587.71
135 4587.71
136 4587.71
137 4587.71
138 4587.71
139 4587.71
140 4587.71
141 4587.71
142 4587.71
143 4587.71
144 4587.71
145 4587.71
146 4587.71
147 4587.71
148 4587.71
149 4587.71
150 4587.71
151 4587.71
152 4587.71
153 4587.71
154 4587.71
155 4587.71
156 4587.71
157 4587.71
158 4587.71
159 4587.71
160 4587.71
161 4587.71
162 4587.71
163 4587.71
164 4587.71
165 4587.71
166 4587.71
167 4587.71
168 4587.71
169 4587.71
170 4587.71
171 4587.71
172 4587.71
173 4587.71
174 4587.71
175 4583.38
176 4583.38
177 4583.38
178 4583.38
179 4583.38
180 4583.38
181 4583.38
182 4583.38
183 4583.38
184 4583.38
185 4583.38
186 4583.38
187 4583.38
188 4583.38
189 4583.38
190 4583.38
191 4583.38
192 4583.38
193 4583.38
194 4583.38
195 4583.38
196 4583.38
197 4583.38
198 4583.38
199 4583.38
200 4583.38
201 4583.38
202 4583.38
203 4583.38
204 4583.38
205 4583.38
206 4583.38
207 4583.38
208 4583.38
209 4583.38
210 4583.38
211 4583.38
212 4583.38
213 4583.38
214 4583.38
215 4580.80
216 4580.80
217 4580.80
218 4580.80
219 4580.80
220 4580.80
221 4580.80
222 4580.80
223 4580.80
224 4580.80
225 4580.80
226 4580.80
227 4580.80
228 4580.80
229 4580.80
230 4580.80
231 4580.80
232 4580.80
233 4580.80
234 4580.80
235 4580.80
236 4580.80
237 4580.80
238 4580.80
239 4580.80
240 4580.80
241 4580.80
242 4580.80
243 4580.80
244 4580.80
245 4580.80
246 4580.80
247 4580.80
248 4580.80
249 4580.80
250 4580.80
251 4580.80
252 4580.80
253 4580.80
254 4580.80
255 4580.80
256 4580.80
257 4580.80
258 4580.80
259 4580.80
260 4580.80
261 4580.80
262 4580.80
263 4580.80
264 4580.80
265 4580.80
266 4580.80
267 4580.80
268 4580.80
269 4580.80
270 4580.80
271 4580.80
272 4580.80
273 4580.80
274 4580.80
275 4580.80
276 4580.80
277 4580.80
278 4580.80
279 4580.80
280 4580.80
281 4580.80
282 4580.80
283 4580.80
284 4580.80
285 4580.80
286 4580.80
287 4580.80
288 4580.80
289 4580.80
290 4580.80
291 4580.80
292 4580.80
293 4580.80
294 4580.80
295 4580.80
296 4580.80
297 4580.80
298 4580.80
299 4580.80
300 4580.80
301 4580.80
302 4580.80
303 4580.80
304 4580.80
305 4580.80
306 4580.80
307 4580.80
308 4580.80
309 4580.80
310 4580.80
311 4580.80
312 4580.80
313 4580.80
314 4580.80
315 4580.80
316 4580.80
317 4580.80
318 4580.80
319 4580.80
320 4580.80
321 4580.80
322 4580.80
323 4580.80
324 4580.80
325 4580.80
326 4580.80
327 4580.80
328 4580.80
329 4580.80
330 4580.80
331 4580.80
332 4580.80
333 4580.80
334 4580.80
335 4580.80
336 4580.80
337 4580.80
338 4580.80
339 4580.80
340 4580.80
341 4580.80
342 4580.80
343 4580.80
344 4580.80
345 4580.80
346 4580.80
347 4580.80
348 4580.80
349 4580.80
350 4580.80
351 4580.80
352 4580.80
353 4580.80
354 4580.80
355 4580.80
356 4580.80
357 4580.80
358 4580.80
359 4580.80
360 4580.80
361 4580.80
362 4580.80
363 4580.80
364 4580.80
365 4580.80
366 4580.80
367 4580.80
368 4580.80
369 4580.80
370 4580.80
371 4580.80
372 4580.80
373 4580.80
374 4580.09
375 4580.09
376 4580.09
377 4580.09
378 4580.09
379 4580.09
380 4580.09
381 4580.09
382 4580.09
383 4580.09
384 4580.09
385 4580.09
386 4580.09
387 4569.81
388 4569.81
389 4569.81
390 4569.81
391 4569.81
392 4569.81
393 4569.81
394 4569.81
395 4569.81
396 4569.81
397 4569.81
398 4569.81
399 4569.81
400 4569.81
401 4569.81
402 4569.81
403 4569.81
404 4569.81
405 4569.81
406 4569.81
407 4569.81
408 4569.81
409 4569.81
410 4569.81
411 4569.81
412 4569.81
413 4569.81
414 4569.81
415 4569.81
416 4569.81
417 4569.81
418 4569.81
419 4569.81
420 4569.81
421 4569.81
422 4569.81
423 4569.81
424 4569.81
425 4569.81
426 4569.81
427 4569.81
428 4569.81
429 4569.81
430 4569.81
431 4569.81
432 4569.81
433 4569.81
434 4569.81
435 4569.81
436 4569.81
437 4569.81
438 4569.81
439 4569.81
440 4569.81
441 4569.81
442 4569.81
443 4569.81
444 4569.81
445 4569.81
446 4569.81
447 4569.81
448 4569.81
449 4569.81
450 4569.81
451 4569.81
452 4567.02
453 4567.02
454 4566.87
455 4566.87
456 4566.87
457 4566.87
458 4566.87
459 4566.87
460 4566.87
461 4566.87
462 4566.87
463 4566.87
464 4566.87
465 4566.87
466 4566.87
467 4566.87
468 4566.87
469 4566.87
470 4566.87
471 4566.87
472 4566.87
473 4566.87
474 4566.87
475 4566.87
476 4566.87
477 4566.87
478 4566.87
479 4566.87
480 4566.87
481 4566.87
482 4566.87
483 4566.87
484 4566.87
485 4566.87
486 4566.87
487 4566.87
488 4566.87
489 4566.87
490 4566.87
491 4566.87
492 4566.87
493 4566.87
494 4566.87
495 4566.87
496 4566.87
497 4566.87
498 4566.87
499 4566.87
2 3 9 5 0 0 